%RWF=/scratch/Gau-12-ethanediol/,64GB
%Chk=12-ethanediol-opt-5-1-2-6-313.chk
%Mem=778484KB
%Nproc=1
#HF/6-31G* Opt=ModRed MaxDisk=64GB

12-ethanediol Rotatable Bond Optimization on node7.bme.utexas.edu

0 1
 C   -0.074320    0.765840    0.618886
 C    0.074320   -0.765840    0.618886
 H   -0.010458    2.217283   -0.638982
 H    0.010458   -2.217283   -0.638982
 O    0.074320    1.275260   -0.672496
 O   -0.074320   -1.275260   -0.672496
 H   -1.057653    1.028348    1.004854
 H    0.660847    1.188323    1.300778
 H    1.057653   -1.028348    1.004854
 H   -0.660847   -1.188323    1.300778

5 1 2 6     312.64 F

